# Define o conjunto "ORIG" e "oferta"
data;

set CIDADES := C1 C2 C3;

#Matriz de custo já aplicada as prioridades
#Prioridades multiplica a coluna da cidade
param Custo:
   C1 C2 C3 :=
C1 0  2   1
C2 1  0   2
C3 1  4   0;



solve;
display X;